solution status: optimal solution found
objective value:                                    0
$_221_y                                            10 	(obj:0)
$_221_z                                            10 	(obj:0)
$_272_y                                            10 	(obj:0)
$_272_z                                             5 	(obj:0)
$_36_y                                              3 	(obj:0)
$_36_z                                              5 	(obj:0)
$_103_y                                             5 	(obj:0)
$_103_z                                             7 	(obj:0)
$_102_y                                             6 	(obj:0)
$_102_z                                             2 	(obj:0)
$_180_y                                             9 	(obj:0)
$_180_z                                            11 	(obj:0)
$_149_y                                            11 	(obj:0)
$_149_z                                             9 	(obj:0)
$_225_y                                             7 	(obj:0)
$_225_z                                             6 	(obj:0)
$_58_y                                              4 	(obj:0)
$_266_y                                             7 	(obj:0)
$_266_z                                             4 	(obj:0)
$_231_y                                            10 	(obj:0)
$_231_z                                             8 	(obj:0)
$_57_y                                              4 	(obj:0)
$_57_z                                             -1 	(obj:0)
$_286_y                                            10 	(obj:0)
$_286_z                                             6 	(obj:0)
$_190_y                                            10 	(obj:0)
$_190_z                                             9 	(obj:0)
$_35_y                                              5 	(obj:0)
$_35_z                                              3 	(obj:0)
$_262_y                                            11 	(obj:0)
$_262_z                                             8 	(obj:0)
$_184_y                                             6 	(obj:0)
$_184_z                                             7 	(obj:0)
